%mem=32000Mb
%NProc=16
%chk=NpO2_C6H5SO2_C6H5SO2-m1-triplet.pbe0.optg-freq.chk
#p PBE1PBE/GEN/GEN GFInput GFOldPrint 5D 7F IOP(4/69=2, 6/7=3)
   Scf=(NoVarAcc,Conver=8,MaxCycle=200) Integral=(Grid=UltraFine)
   Pseudo=Read Guess=Harris
   Symm=Loose Opt Freq=NoRaman

NpO2_C6H5SO2_C6H5SO2-m1-triplet.pbe0.optg-freq.chk

 -1 3
C     0.3847414    4.2187374    0.0328214
S     1.4702578    2.7613902    0.0576775
O     0.9461425    1.9788446    1.2631818
Np   -0.0002610   -0.0007015    0.0079616
O    -0.9440390   -1.9742772   -1.2552833
S    -1.4724684   -2.7613751   -0.0544596
C    -0.3892193   -4.2204952   -0.0350796
O     1.0130227    1.9855489   -1.1791840
O    -1.0162704   -1.9924496    1.1869371
O     1.5956363   -0.7896410    0.0033751
O    -1.5962865    0.7880000    0.0138477
C    -0.9804271   -5.4717609   -0.0142636
C    -0.1846411   -6.6115499    0.0035964
C     1.1956979   -6.4846271   -0.0002640
C     1.7808953   -5.2219843   -0.0217285
C     0.9933398   -4.0824877   -0.0394925
H    -2.0629144   -5.5514778   -0.0123589
H    -0.6419671   -7.5944472    0.0201699
H     1.8207280   -7.3704739    0.0130499
H     2.8609208   -5.1272217   -0.0246922
H     1.4319225   -3.0898221   -0.0560720
C     0.9748558    5.4704620    0.0073914
C     0.1781283    6.6094955   -0.0147661
C    -1.2021126    6.4814027   -0.0102793
C    -1.7862017    5.2183566    0.0159696
C    -0.9976972    4.0795709    0.0378944
H     2.0572810    5.5510225    0.0051660
H     0.6345864    7.5927372   -0.0344948
H    -1.8279026    7.3666553   -0.0269602
H    -2.8661446    5.1226390    0.0194117
H    -1.4354711    3.0866292    0.0582420

Np 0
S 3 1.00
12608.7120000 0.000283
1860.7357000 0.002197
362.9014700 0.007792
S 1 1.00
109.2067200 1.0
S 3 1.00
63.7434260 0.060657
37.2488640 -0.256338
21.6917530 0.728259
S 1 1.00
10.5354930 1.0
S 1 1.00
2.9743190 1.0
S 1 1.00
1.5975970 1.0
S 1 1.00
0.6358520 1.0
S 1 1.00
0.2881220 1.0
S 1 1.00
0.0590980 1.0
S 1 1.00
0.0240410 1.0
P 5 1.00
2910.4057000 0.000074
702.6976100 0.000571
225.0786100 0.002833
81.0763820 0.007889
25.4817050 0.016924
P 1 1.00
14.9892380 1.0
P 1 1.00
8.7634560 1.0
P 1 1.00
3.6275340 1.0
P 1 1.00
1.8062750 1.0
P 1 1.00
0.6853270 1.0
P 1 1.00
0.2939420 1.0
P 1 1.00
0.1030860 1.0
P 1 1.00
0.0308800 1.0
D 6 1.00
466.3282000 0.000053
160.0231800 0.000378
60.9150000 0.001967
18.4003070 0.026101
10.8237100 -0.088883
3.7149000 0.450510
D 1 1.00
1.8343810 1.0
D 1 1.00
0.8178830 1.0
D 1 1.00
0.2716130 1.0
D 1 1.00
0.0835950 1.0
F 5 1.00
110.5329600 0.000259
36.9281390 0.002616
15.1558070 0.011226
4.9877490 0.135563
2.4414710 0.343223
F 1 1.00
1.1048580 1.0
F 1 1.00
0.4554700 1.0
F 1 1.00
0.1617190 1.0
G 4 1.00
110.5329600 0.000164
36.9281390 0.002792
15.1558070 0.027455
4.9877490 0.145211
G 1 1.00
2.4414710 1.0
G 1 1.00
1.1048500 1.0
****
S  0
aug-cc-pVTZ
****
O  0
aug-cc-pVTZ
****
C  0
aug-cc-pVTZ
****
H  0
aug-cc-pVTZ
****

Np 0
MWB60

Np 0
   S  5  1.0
  17373.635659      0.89190000000E-02
  4289.6801859     -0.20219600000E-01
  2187.9513375      0.77033200000E-01
  1102.1598816     -0.67313300000E-01
  542.92611440      0.85572500000E-01
   S  1  1.0
  254.41877180     -0.11623700000E-01
   S  1  1.0
  127.20938590     -0.15789860000
   S  1  1.0
  63.604692900      0.84820880000
   S  1  1.0
  31.802346500      -4.0440681000
   S  1  1.0
  16.924128700       13.541425700
   S  1  1.0
  8.4620643000      -26.870139200
   S  1  1.0
  4.2310322000       18.909058600
   S  1  1.0
  2.1155161000       1.1825375000
   S  1  1.0
  1.0577580000       2.3562677000
   S  1  1.0
 0.52887900000       1.2720239000
   S  1  1.0
 0.26443950000      0.25200800000E-01
   S  1  1.0
 0.13091070000      0.16005200000
   S  1  1.0
 0.66771000000E-01  0.23449100000E-01
   P  1  1.0
  8.0632439000      0.25972200000E-01
   P  1  1.0
  3.6575555000     -0.56323800000E-01
   P  1  1.0
  1.6382073000      0.22219100000E-01
   P  1  1.0
 0.73488860000     -0.11829000000E-01
   P  1  1.0
 0.33003260000     -0.13311300000E-01
   P  1  1.0
 0.16633760000      0.28493500000E-01
   P  1  1.0
 0.83834700000E-01 -0.23949000000E-02
   D  1  1.0
  21.377936600     -0.51968000000E-02
   D  1  1.0
  6.2478007000      0.10681100000E-01
   D  1  1.0
  2.9458380000      0.70468000000E-02
   D  1  1.0
  1.1118712000     -0.23009200000E-01
   D  1  1.0
 0.44343500000      0.94363000000E-02
   D  1  1.0
 0.19280990000      0.14568400000E-01
   D  1  1.0
 0.75560300000E-01  0.14300000000E-03
   F  1  1.0
  4.7843378000      0.18732000000E-02
   F  1  1.0
  2.3031409000      0.13789000000E-02
   F  1  1.0
  1.1310398000     -0.26802000000E-02
   F  1  1.0
 0.48322280000      0.31930000000E-03
   F  1  1.0
 0.23731380000     -0.32541000000E-02
   F  1  1.0
 0.11425050000      0.48030000000E-03
   G  2  1.0
  6.8852993000      0.39046000000E-02
  2.9398047000      0.15011500000E-01
   G  1  1.0
  1.2555614000      0.35467000000E-02
   G  1  1.0
 0.53634700000     -0.12506000000E-02
   G  1  1.0
 0.22914310000     -0.17293000000E-02
   G  1  1.0
 0.97900600000E-01  0.15000000000E-04
   H  2  1.0
  6.8031467000     -0.56100000000E-02
 0.88335140000      0.59632000000E-02
   H  1  1.0
 0.27708120000      0.55180000000E-03
   I  4  1.0
  10.081703200      0.39809000000E-02
  4.5058793000      0.14105500000E-01
  1.9254964000      0.77186000000E-02
 0.82282340000      0.13513000000E-02
   I  1  1.0
 0.35161780000      0.22880000000E-03
****
S  0
S  7  1.0
  7399.0303145      0.72279330000
  2710.1675859       1.3706745000
  1034.3279062       4.3217500000
  410.46454110       8.7624644000
  168.97625020       10.528990900
  71.968788900       3.0836598000
  31.617268300      -1.5821203000
S  1  1.0
  14.279683600       4.4920092000
S  1  1.0
  6.6060948000       5.6247567000
S  1  1.0
  3.1181477000      0.23311330000
S  1  1.0
  1.4954039000     -0.45274010000
S  1  1.0
 0.72547790000      0.67316170000
S  1  1.0
 0.35442160000      0.40156530000
S  1  1.0
 0.17355250000      0.61036900000E-01
P  2  1.0
  12.699879900      0.45797100000E-01
  4.4295784000     -0.39496800000E-01
P  1  1.0
  1.5232889000      0.35733800000E-01
P  1  1.0
 0.51946670000     -0.40859000000E-02
P  1  1.0
 0.17665470000     -0.36880000000E-02
D  3  1.0
  16.854646100      0.26323600000E-01
  5.0810461000     -0.19077300000E-01
  1.5102323000      0.21366800000E-01
D  1  1.0
 0.44513310000      0.21936900000E-01
D  1  1.0
 0.13083620000      0.16925000000E-02
F  2  1.0
  1.0809860000       1.0000000000
 0.41614740000       1.0000000000
G  1  1.0
 0.67071000000     -0.44361000000E-02
****
O  0
S  7  1.0
  2876.8216605      0.14435580000
  1004.7443032      0.29200410000
  369.75799540       1.0258517000
  142.94424040       2.2875516000
  57.836642500       3.6080237000
  24.386498300       2.3737865000
  10.662266200      0.48941400000E-01
S  1  1.0
  4.8070437000     -0.12951860000
S  1  1.0
  2.2210770000      0.77471580000
S  1  1.0
  1.0447795000      0.76478160000
S  1  1.0
 0.49684250000      0.23698030000
S  1  1.0
 0.23713840000      0.20809900000E-01
P  2  1.0
  64.261338200     -0.12665900000E-01
  16.300607600     -0.37874400000E-01
P  1  1.0
  4.3550542000      0.63807800000E-01
P  1  1.0
  1.2019554000      0.16951600000E-01
P  1  1.0
 0.33541960000      0.65743000000E-02
D  2  1.0
  9.2146611000     -0.59791400000E-01
  2.8435251000     -0.84672400000E-01
D  1  1.0
 0.99557590000     -0.46606600000E-01
D  1  1.0
 0.36494410000     -0.96978000000E-02
F  2  1.0
  2.6420115000       1.0000000000
 0.73456130000       1.0000000000
G  1  1.0
  1.3931000000     -0.16533000000E-02
****
C  0
S  7  1.0
  1861.0916331      0.74417100000E-01
  642.99397640      0.16539570000
  235.11057250      0.55764840000
  90.702889400       1.3108298000
  36.779455200       2.1694681000
  15.604627300       1.7668846000
  6.8907294000      0.29307690000
S  1  1.0
  3.1478850000     -0.17087020000
S  1  1.0
  1.4777287000      0.16415530000
S  1  1.0
 0.70764660000      0.41499410000
S  1  1.0
 0.34301220000      0.16243660000
S  1  1.0
 0.16694530000      0.20767500000E-01
P  2  1.0
  13.547289200     -0.20647700000E-01
  5.4669419000     -0.11528200000E-01
P  1  1.0
  2.1751721000      0.45591400000E-01
P  1  1.0
 0.85821940000      0.28360000000E-02
P  1  1.0
 0.33767200000      0.18187500000E-01
D  2  1.0
  5.9287253000     -0.22594800000E-01
  1.9809209000     -0.47682700000E-01
D  1  1.0
 0.80554170000     -0.36537200000E-01
D  1  1.0
 0.35312440000     -0.14541700000E-01
F  2  1.0
  1.6755626000      0.88798000000E-02
 0.59975360000      0.69903000000E-02
G  1  1.0
  1.0024600000     -0.22192000000E-02
****
H  0
S  3  1.0
  15.675292700      0.18688600000E-01
  3.6063578000      0.63167000000E-01
  1.2080016000      0.12046090000
S  1  1.0
 0.47267940000      0.59248500000E-01
S  1  1.0
 0.20181000000      0.51272000000E-02
P  2  1.0
  2.0281365000       1.0000000000
 0.53587300000       1.0000000000
D  1  1.0
  2.2165124000      0.33116000000E-02
****

