%mem=64000Mb
%NProc=16
%chk=NpO2_C6H5SO2_OH-m1-triplet.pbe0.optg-freq.chk
#p PBE1PBE/GEN/GEN GFInput GFOldPrint 5D 7F IOP(4/69=2, 6/7=3)
   Scf=(XQC,NoVarAcc,Conver=8,MaxCycle=200) Integral=(Grid=UltraFine)
   Pseudo=Read Guess=Read Opt Freq=Noraman
   Symm=Loose 

NpO2_C6H5SO2_OH-m1-triplet.pbe0.optg-freq.chk

 -1 3
C     0.4567768    3.5530215    1.0577107
C     0.4051600    2.8389590   -0.1365131
C    -0.4059527    3.2596810   -1.1848749
C    -1.1769289    4.4030411   -1.0367497
C    -1.1441593    5.1131209    0.1629090
C    -0.3238264    4.6903340    1.2078009
S     1.5294398    1.4230539   -0.3657800
O     0.7736270    0.5824352   -1.3988000
Np   -0.1315682   -1.2237068    0.0768385
O    -1.5200755   -0.2202985    0.5669902
O     1.4507551    0.7160263    0.9788538
O    -1.4928625   -2.7059158   -0.8436506
H    -1.0328180   -3.4450631   -1.2438880
O     1.2630354   -2.2977854   -0.2497149
H    -0.4345461    2.6702523   -2.0984935
H    -1.8239062    4.7275559   -1.8499897
H    -1.7608425    5.9963686    0.2850956
H    -0.3049091    5.2406916    2.1479442
H     1.0851602    3.1935830    1.8704531

Np 0
S 3 1.00
12608.7120000 0.000283
1860.7357000 0.002197
362.9014700 0.007792
S 1 1.00
109.2067200 1.0
S 3 1.00
63.7434260 0.060657
37.2488640 -0.256338
21.6917530 0.728259
S 1 1.00
10.5354930 1.0
S 1 1.00
2.9743190 1.0
S 1 1.00
1.5975970 1.0
S 1 1.00
0.6358520 1.0
S 1 1.00
0.2881220 1.0
S 1 1.00
0.0590980 1.0
S 1 1.00
0.0240410 1.0
P 5 1.00
2910.4057000 0.000074
702.6976100 0.000571
225.0786100 0.002833
81.0763820 0.007889
25.4817050 0.016924
P 1 1.00
14.9892380 1.0
P 1 1.00
8.7634560 1.0
P 1 1.00
3.6275340 1.0
P 1 1.00
1.8062750 1.0
P 1 1.00
0.6853270 1.0
P 1 1.00
0.2939420 1.0
P 1 1.00
0.1030860 1.0
P 1 1.00
0.0308800 1.0
D 6 1.00
466.3282000 0.000053
160.0231800 0.000378
60.9150000 0.001967
18.4003070 0.026101
10.8237100 -0.088883
3.7149000 0.450510
D 1 1.00
1.8343810 1.0
D 1 1.00
0.8178830 1.0
D 1 1.00
0.2716130 1.0
D 1 1.00
0.0835950 1.0
F 5 1.00
110.5329600 0.000259
36.9281390 0.002616
15.1558070 0.011226
4.9877490 0.135563
2.4414710 0.343223
F 1 1.00
1.1048580 1.0
F 1 1.00
0.4554700 1.0
F 1 1.00
0.1617190 1.0
G 4 1.00
110.5329600 0.000164
36.9281390 0.002792
15.1558070 0.027455
4.9877490 0.145211
G 1 1.00
2.4414710 1.0
G 1 1.00
1.1048500 1.0
****
S  0
aug-cc-pVTZ
****
O  0
aug-cc-pVTZ
****
C  0
aug-cc-pVTZ
****
H  0
aug-cc-pVTZ
****

Np 0
MWB60

Np 0
   S  5  1.0
  17373.635659      0.89190000000E-02
  4289.6801859     -0.20219600000E-01
  2187.9513375      0.77033200000E-01
  1102.1598816     -0.67313300000E-01
  542.92611440      0.85572500000E-01
   S  1  1.0
  254.41877180     -0.11623700000E-01
   S  1  1.0
  127.20938590     -0.15789860000
   S  1  1.0
  63.604692900      0.84820880000
   S  1  1.0
  31.802346500      -4.0440681000
   S  1  1.0
  16.924128700       13.541425700
   S  1  1.0
  8.4620643000      -26.870139200
   S  1  1.0
  4.2310322000       18.909058600
   S  1  1.0
  2.1155161000       1.1825375000
   S  1  1.0
  1.0577580000       2.3562677000
   S  1  1.0
 0.52887900000       1.2720239000
   S  1  1.0
 0.26443950000      0.25200800000E-01
   S  1  1.0
 0.13091070000      0.16005200000
   S  1  1.0
 0.66771000000E-01  0.23449100000E-01
   P  1  1.0
  8.0632439000      0.25972200000E-01
   P  1  1.0
  3.6575555000     -0.56323800000E-01
   P  1  1.0
  1.6382073000      0.22219100000E-01
   P  1  1.0
 0.73488860000     -0.11829000000E-01
   P  1  1.0
 0.33003260000     -0.13311300000E-01
   P  1  1.0
 0.16633760000      0.28493500000E-01
   P  1  1.0
 0.83834700000E-01 -0.23949000000E-02
   D  1  1.0
  21.377936600     -0.51968000000E-02
   D  1  1.0
  6.2478007000      0.10681100000E-01
   D  1  1.0
  2.9458380000      0.70468000000E-02
   D  1  1.0
  1.1118712000     -0.23009200000E-01
   D  1  1.0
 0.44343500000      0.94363000000E-02
   D  1  1.0
 0.19280990000      0.14568400000E-01
   D  1  1.0
 0.75560300000E-01  0.14300000000E-03
   F  1  1.0
  4.7843378000      0.18732000000E-02
   F  1  1.0
  2.3031409000      0.13789000000E-02
   F  1  1.0
  1.1310398000     -0.26802000000E-02
   F  1  1.0
 0.48322280000      0.31930000000E-03
   F  1  1.0
 0.23731380000     -0.32541000000E-02
   F  1  1.0
 0.11425050000      0.48030000000E-03
   G  2  1.0
  6.8852993000      0.39046000000E-02
  2.9398047000      0.15011500000E-01
   G  1  1.0
  1.2555614000      0.35467000000E-02
   G  1  1.0
 0.53634700000     -0.12506000000E-02
   G  1  1.0
 0.22914310000     -0.17293000000E-02
   G  1  1.0
 0.97900600000E-01  0.15000000000E-04
   H  2  1.0
  6.8031467000     -0.56100000000E-02
 0.88335140000      0.59632000000E-02
   H  1  1.0
 0.27708120000      0.55180000000E-03
   I  4  1.0
  10.081703200      0.39809000000E-02
  4.5058793000      0.14105500000E-01
  1.9254964000      0.77186000000E-02
 0.82282340000      0.13513000000E-02
   I  1  1.0
 0.35161780000      0.22880000000E-03
****
S  0
S  7  1.0
  7399.0303145      0.72279330000
  2710.1675859       1.3706745000
  1034.3279062       4.3217500000
  410.46454110       8.7624644000
  168.97625020       10.528990900
  71.968788900       3.0836598000
  31.617268300      -1.5821203000
S  1  1.0
  14.279683600       4.4920092000
S  1  1.0
  6.6060948000       5.6247567000
S  1  1.0
  3.1181477000      0.23311330000
S  1  1.0
  1.4954039000     -0.45274010000
S  1  1.0
 0.72547790000      0.67316170000
S  1  1.0
 0.35442160000      0.40156530000
S  1  1.0
 0.17355250000      0.61036900000E-01
P  2  1.0
  12.699879900      0.45797100000E-01
  4.4295784000     -0.39496800000E-01
P  1  1.0
  1.5232889000      0.35733800000E-01
P  1  1.0
 0.51946670000     -0.40859000000E-02
P  1  1.0
 0.17665470000     -0.36880000000E-02
D  3  1.0
  16.854646100      0.26323600000E-01
  5.0810461000     -0.19077300000E-01
  1.5102323000      0.21366800000E-01
D  1  1.0
 0.44513310000      0.21936900000E-01
D  1  1.0
 0.13083620000      0.16925000000E-02
F  2  1.0
  1.0809860000       1.0000000000
 0.41614740000       1.0000000000
G  1  1.0
 0.67071000000     -0.44361000000E-02
****
O  0
S  7  1.0
  2876.8216605      0.14435580000
  1004.7443032      0.29200410000
  369.75799540       1.0258517000
  142.94424040       2.2875516000
  57.836642500       3.6080237000
  24.386498300       2.3737865000
  10.662266200      0.48941400000E-01
S  1  1.0
  4.8070437000     -0.12951860000
S  1  1.0
  2.2210770000      0.77471580000
S  1  1.0
  1.0447795000      0.76478160000
S  1  1.0
 0.49684250000      0.23698030000
S  1  1.0
 0.23713840000      0.20809900000E-01
P  2  1.0
  64.261338200     -0.12665900000E-01
  16.300607600     -0.37874400000E-01
P  1  1.0
  4.3550542000      0.63807800000E-01
P  1  1.0
  1.2019554000      0.16951600000E-01
P  1  1.0
 0.33541960000      0.65743000000E-02
D  2  1.0
  9.2146611000     -0.59791400000E-01
  2.8435251000     -0.84672400000E-01
D  1  1.0
 0.99557590000     -0.46606600000E-01
D  1  1.0
 0.36494410000     -0.96978000000E-02
F  2  1.0
  2.6420115000       1.0000000000
 0.73456130000       1.0000000000
G  1  1.0
  1.3931000000     -0.16533000000E-02
****
C  0
S  7  1.0
  1861.0916331      0.74417100000E-01
  642.99397640      0.16539570000
  235.11057250      0.55764840000
  90.702889400       1.3108298000
  36.779455200       2.1694681000
  15.604627300       1.7668846000
  6.8907294000      0.29307690000
S  1  1.0
  3.1478850000     -0.17087020000
S  1  1.0
  1.4777287000      0.16415530000
S  1  1.0
 0.70764660000      0.41499410000
S  1  1.0
 0.34301220000      0.16243660000
S  1  1.0
 0.16694530000      0.20767500000E-01
P  2  1.0
  13.547289200     -0.20647700000E-01
  5.4669419000     -0.11528200000E-01
P  1  1.0
  2.1751721000      0.45591400000E-01
P  1  1.0
 0.85821940000      0.28360000000E-02
P  1  1.0
 0.33767200000      0.18187500000E-01
D  2  1.0
  5.9287253000     -0.22594800000E-01
  1.9809209000     -0.47682700000E-01
D  1  1.0
 0.80554170000     -0.36537200000E-01
D  1  1.0
 0.35312440000     -0.14541700000E-01
F  2  1.0
  1.6755626000      0.88798000000E-02
 0.59975360000      0.69903000000E-02
G  1  1.0
  1.0024600000     -0.22192000000E-02
****
H  0
S  3  1.0
  15.675292700      0.18688600000E-01
  3.6063578000      0.63167000000E-01
  1.2080016000      0.12046090000
S  1  1.0
 0.47267940000      0.59248500000E-01
S  1  1.0
 0.20181000000      0.51272000000E-02
P  2  1.0
  2.0281365000       1.0000000000
 0.53587300000       1.0000000000
D  1  1.0
  2.2165124000      0.33116000000E-02
****

